152 134427
1 16 2 37 33 32 15 3 4 13 27 28 42 64 83 86 84 85 108 109 110 107 105 106 117 140 139 141 142 143 138 137 118 112 103 102 101 100 113 91 78 73 50 76 74 75 51 47 39 23 22 11 6 12 5 25 26 24 87 104 111 119 136 135 144 145 146 134 133 120 114 99 97 98 79 71 53 52 46 72 70 69 54 45 31 30 14 29 38 44 55 56 68 67 66 65 57 43 20 21 19 7 10 8 9 17 18 40 41 60 61 62 63 58 59 82 88 81 89 80 90 96 115 116 121 132 131 147 148 149 130 129 122 123 128 127 151 150 152 126 125 124 95 93 94 92 77 49 48 34 36 35 
